(set-info :smt-lib-version 2.6)
(set-logic QF_FXP)
(set-info :category "crafted")
(set-info :source |Alberto Griggio <griggio@fbk.eu>. These benchmarks were used for the evaluation in the following paper: L. Haller, A. Griggio, M. Brain, D. Kroening: Deciding floating-point logic with systematic abstraction. FMCAD 2012. Real-numbered literals have been automatically translated by MathSAT|)
(set-info :status unknown)
;; MathSAT API call trace ;; generated on 05/20/15 17:24:53 
(declare-fun |c::main::1::IN!0@1#0| () (_ SFXP 32 16))
(define-fun _t_3 () RoundingMode RNE)
(define-fun _t_9 () (_ SFXP 32 16) |c::main::1::IN!0@1#0|)
(define-fun _t_11 () (_ SFXP 32 16) (sfxp #x00020000 16))
(define-fun _t_12 () Bool (sfxp.lt _t_9 _t_11))
(define-fun _t_14 () (_ SFXP 32 16) (sfxp #x00020000 16))
(define-fun _t_15 () Bool (sfxp.lt _t_14 _t_9))
(define-fun _t_16 () Bool (and _t_12 _t_15))
(define-fun _t_17 () (_ SFXP 32 16) (sfxp.mul Saturated roundTowardPositive _t_9 _t_9))
(define-fun _t_18 () (_ SFXP 32 16) (sfxp.div Saturated roundTowardPositive _t_17 _t_11))
(define-fun _t_19 () (_ SFXP 32 16) (sfxp.neg Saturated _t_18))
(define-fun _t_21 () (_ SFXP 32 16) (sfxp #x00010000 16))
(define-fun _t_22 () (_ SFXP 32 16) (sfxp.add Saturated _t_19 _t_21))
(define-fun _t_23 () (_ SFXP 32 16) (sfxp.mul Saturated roundTowardPositive _t_9 _t_17))
(define-fun _t_24 () (_ SFXP 32 16) (sfxp.mul Saturated roundTowardPositive _t_9 _t_23))
(define-fun _t_26 () (_ SFXP 32 16) (sfxp #x00180000 16))
(define-fun _t_27 () (_ SFXP 32 16) (sfxp.div Saturated roundTowardPositive _t_24 _t_26))
(define-fun _t_28 () (_ SFXP 32 16) (sfxp.add Saturated _t_22 _t_27))
(define-fun _t_29 () (_ SFXP 32 16) (sfxp.mul Saturated roundTowardPositive _t_9 _t_24))
(define-fun _t_30 () (_ SFXP 32 16) (sfxp.mul Saturated roundTowardPositive _t_9 _t_29))
(define-fun _t_32 () (_ SFXP 32 16) (sfxp #x02d00000 16))
(define-fun _t_33 () (_ SFXP 32 16) (sfxp.div Saturated roundTowardPositive _t_30 _t_32))
(define-fun _t_34 () (_ SFXP 32 16) (sfxp.add Saturated _t_28 _t_33))
(define-fun _t_36 () (_ SFXP 32 16) (sfxp #x00060000 16))
(define-fun _t_37 () (_ SFXP 32 16) (sfxp.div Saturated roundTowardPositive _t_23 _t_36))
(define-fun _t_38 () (_ SFXP 32 16) (sfxp.neg Saturated _t_37))
(define-fun _t_39 () (_ SFXP 32 16) (sfxp.add Saturated _t_9 _t_38))
(define-fun _t_41 () (_ SFXP 32 16) (sfxp #x00780000 16))
(define-fun _t_42 () (_ SFXP 32 16) (sfxp.div Saturated roundTowardPositive _t_29 _t_41))
(define-fun _t_43 () (_ SFXP 32 16) (sfxp.add Saturated _t_39 _t_42))
(define-fun _t_44 () (_ SFXP 32 16) (sfxp.mul Saturated roundTowardPositive _t_9 _t_30))
(define-fun _t_46 () (_ SFXP 32 16) (sfxp #x13b00000 16))
(define-fun _t_47 () (_ SFXP 32 16) (sfxp.div Saturated roundTowardPositive _t_44 _t_46))
(define-fun _t_48 () (_ SFXP 32 16) (sfxp.add Saturated _t_43 _t_47))
(define-fun _t_49 () (_ SFXP 32 16) (sfxp.div Saturated roundTowardPositive _t_48 _t_34))
(define-fun _t_50 () (_ SFXP 32 16) (sfxp.neg Saturated _t_49))
(define-fun _t_51 () (_ SFXP 32 16) (sfxp.add Saturated _t_9 _t_50))
(define-fun _t_52 () (_ SFXP 32 16) (sfxp.mul Saturated roundTowardPositive _t_51 _t_51))
(define-fun _t_53 () (_ SFXP 32 16) (sfxp.div Saturated roundTowardPositive _t_52 _t_11))
(define-fun _t_54 () (_ SFXP 32 16) (sfxp.neg Saturated _t_53))
(define-fun _t_55 () (_ SFXP 32 16) (sfxp.add Saturated _t_21 _t_54))
(define-fun _t_56 () (_ SFXP 32 16) (sfxp.mul Saturated roundTowardPositive _t_51 _t_52))
(define-fun _t_57 () (_ SFXP 32 16) (sfxp.mul Saturated roundTowardPositive _t_51 _t_56))
(define-fun _t_58 () (_ SFXP 32 16) (sfxp.div Saturated roundTowardPositive _t_57 _t_26))
(define-fun _t_59 () (_ SFXP 32 16) (sfxp.add Saturated _t_55 _t_58))
(define-fun _t_60 () (_ SFXP 32 16) (sfxp.mul Saturated roundTowardPositive _t_51 _t_57))
(define-fun _t_61 () (_ SFXP 32 16) (sfxp.mul Saturated roundTowardPositive _t_51 _t_60))
(define-fun _t_62 () (_ SFXP 32 16) (sfxp.div Saturated roundTowardPositive _t_61 _t_32))
(define-fun _t_63 () (_ SFXP 32 16) (sfxp.add Saturated _t_59 _t_62))
(define-fun _t_64 () (_ SFXP 32 16) (sfxp.div Saturated roundTowardPositive _t_56 _t_36))
(define-fun _t_65 () (_ SFXP 32 16) (sfxp.neg Saturated _t_64))
(define-fun _t_66 () (_ SFXP 32 16) (sfxp.add Saturated _t_51 _t_65))
(define-fun _t_67 () (_ SFXP 32 16) (sfxp.div Saturated roundTowardPositive _t_60 _t_41))
(define-fun _t_68 () (_ SFXP 32 16) (sfxp.add Saturated _t_66 _t_67))
(define-fun _t_69 () (_ SFXP 32 16) (sfxp.mul Saturated roundTowardPositive _t_51 _t_61))
(define-fun _t_70 () (_ SFXP 32 16) (sfxp.div Saturated roundTowardPositive _t_69 _t_46))
(define-fun _t_71 () (_ SFXP 32 16) (sfxp.add Saturated _t_68 _t_70))
(define-fun _t_72 () (_ SFXP 32 16) (sfxp.div Saturated roundTowardPositive _t_71 _t_63))
(define-fun _t_73 () (_ SFXP 32 16) (sfxp.neg Saturated _t_72))
(define-fun _t_74 () (_ SFXP 32 16) (sfxp.add Saturated _t_51 _t_73))
(define-fun _t_75 () (_ SFXP 32 16) (sfxp.mul Saturated roundTowardPositive _t_74 _t_74))
(define-fun _t_76 () (_ SFXP 32 16) (sfxp.div Saturated roundTowardPositive _t_75 _t_11))
(define-fun _t_77 () (_ SFXP 32 16) (sfxp.neg Saturated _t_76))
(define-fun _t_78 () (_ SFXP 32 16) (sfxp.add Saturated _t_21 _t_77))
(define-fun _t_79 () (_ SFXP 32 16) (sfxp.mul Saturated roundTowardPositive _t_74 _t_75))
(define-fun _t_80 () (_ SFXP 32 16) (sfxp.mul Saturated roundTowardPositive _t_74 _t_79))
(define-fun _t_81 () (_ SFXP 32 16) (sfxp.div Saturated roundTowardPositive _t_80 _t_26))
(define-fun _t_82 () (_ SFXP 32 16) (sfxp.add Saturated _t_78 _t_81))
(define-fun _t_83 () (_ SFXP 32 16) (sfxp.mul Saturated roundTowardPositive _t_74 _t_80))
(define-fun _t_84 () (_ SFXP 32 16) (sfxp.mul Saturated roundTowardPositive _t_74 _t_83))
(define-fun _t_85 () (_ SFXP 32 16) (sfxp.div Saturated roundTowardPositive _t_84 _t_32))
(define-fun _t_86 () (_ SFXP 32 16) (sfxp.add Saturated _t_82 _t_85))
(define-fun _t_87 () (_ SFXP 32 16) (sfxp.div Saturated roundTowardPositive _t_79 _t_36))
(define-fun _t_88 () (_ SFXP 32 16) (sfxp.neg Saturated _t_87))
(define-fun _t_89 () (_ SFXP 32 16) (sfxp.add Saturated _t_74 _t_88))
(define-fun _t_90 () (_ SFXP 32 16) (sfxp.div Saturated roundTowardPositive _t_83 _t_41))
(define-fun _t_91 () (_ SFXP 32 16) (sfxp.add Saturated _t_89 _t_90))
(define-fun _t_92 () (_ SFXP 32 16) (sfxp.mul Saturated roundTowardPositive _t_74 _t_84))
(define-fun _t_93 () (_ SFXP 32 16) (sfxp.div Saturated roundTowardPositive _t_92 _t_46))
(define-fun _t_94 () (_ SFXP 32 16) (sfxp.add Saturated _t_91 _t_93))
(define-fun _t_95 () (_ SFXP 32 16) (sfxp.div Saturated roundTowardPositive _t_94 _t_86))
(define-fun _t_96 () (_ SFXP 32 16) (sfxp.neg Saturated _t_95))
(define-fun _t_97 () (_ SFXP 32 16) (sfxp.add Saturated _t_74 _t_96))
(define-fun _t_98 () (_ SFXP 32 16) _t_97)
(define-fun _t_100 () (_ SFXP 32 16) (sfxp #x00001999 16))
(define-fun _t_101 () Bool (sfxp.lt _t_98 _t_100))
(define-fun _t_102 () Bool (not _t_101))
(define-fun _t_103 () Bool (and _t_16 _t_102))
(assert _t_103)
(check-sat)
(exit)
